c --- [ banner ] -------------------------------------------------------------
c 
c CaDiCaL Radically Simplified CDCL SAT Solver
c Copyright (c) 2016-2021 A. Biere, M. Fleury, N. Froleyks
c 
c Version 1.5.2 ca9bff05c11bde5eae4912f9932871d1527e61d8
c g++ (GCC) 9.3.0 -Wall -Wextra -O3 -DNDEBUG
c Sun May 1 02:23:23 EDT 2022 Linux gra-login1 3.10.0-1160.59.1.el7.x86_64 x86_64
c 
c --- [ limit ] --------------------------------------------------------------
c 
c setting conflict limit to 200000 conflicts (due to '200000')
c 
c --- [ parsing input ] ------------------------------------------------------
c 
c reading DIMACS file from '12.cubes989.adj'
c opening file to read '12.cubes989.adj'
c found 'p cnf 5320 924210' header
c parsed 924210 clauses in 8.79 seconds process time
c closing file '12.cubes989.adj'
c after reading 686668115 bytes 654.9 MB
c 
c --- [ options ] ------------------------------------------------------------
c 
c all options are set to their default value
c 
c --- [ solving ] ------------------------------------------------------------
c 
c time measured in process time since initialization
c 
c  seconds   reductions  redundant  irredundant
c          MB    restarts       trail      variables
c           level   conflicts       glue        remaining
c 
c *  8.79 692  0 0   0    0    0  0% 0 923580 3900 73%
c {  9.14 711  0 0   0    0    0  0% 0 923580 3900 73%
c i  9.20 711  1 0   0    1    0 35% 0 923580 3876 73%
c i  9.20 711 10 0   0    3    1 35% 3 923580 3853 72%
c i 10.57 750 40 0   2   59   46 48% 9 923580 3852 72%
c i 10.89 756 37 0   7   78   62 47% 12 923580 3851 72%
c i 10.91 756 36 0   8   80   63 47% 12 923580 3823 72%
c i 11.20 759 30 0  11  123   98 46% 11 923580 3771 71%
c i 11.89 761 43 0  17  196  157 46% 11 923580 3769 71%
c - 13.94 697 33 1  26  300  175 43% 10 146166 3769 71%
c i 14.09 697 31 1  27  346  187 43% 10 146166 3753 71%
c i 14.10 697 31 1  28  349  189 43% 10 146166 3752 71%
c i 14.10 697 31 1  29  351  190 43% 10 146166 3751 71%
c i 14.34 697 35 1  37  409  226 43% 11 146166 3742 70%
c i 14.48 697 38 1  41  427  240 43% 12 146166 3736 70%
c i 14.48 697 37 1  42  429  241 43% 12 146166 3735 70%
c i 14.48 697 37 1  43  431  242 43% 12 146166 3734 70%
c i 14.48 697 37 1  43  432  242 43% 12 146166 3733 70%
c i 14.50 697 37 1  45  439  247 43% 12 146166 3732 70%
c i 14.73 697 38 1  58  505  285 44% 12 146166 3731 70%
c 
c  seconds   reductions  redundant   irredundant
c          MB    restarts       trail       variables
c           level   conflicts       glue         remaining
c 
c i 14.87 697 37 1  63  557  323 44% 12 146166 3730 70%
c i 14.96 697 38 1  70  583  343 44% 13 146166 3729 70%
c i 14.98 697 38 1  73  591  348 45% 13 146166 3728 70%
c i 14.98 697 38 1  73  592  348 45% 13 146166 3727 70%
c i 14.98 697 38 1  74  593  348 45% 13 146166 3726 70%
c i 14.98 697 38 1  74  594  348 44% 13 146166 3725 70%
c i 14.98 697 38 1  74  595  348 44% 13 146166 3724 70%
c i 15.43 697 42 1  98  696  430 45% 16 146166 3723 70%
c i 15.53 697 42 1 103  715  444 45% 16 146166 3722 70%
c i 15.66 697 43 1 109  735  463 46% 17 146166 3721 70%
c i 15.68 697 43 1 111  744  470 46% 17 146166 3720 70%
c i 15.69 697 43 1 112  753  478 46% 17 146166 3719 70%
c i 16.05 697 45 1 129  822  541 45% 17 146166 3718 70%
c i 16.24 697 45 1 135  868  576 46% 18 146166 3717 70%
c i 16.26 697 45 1 136  873  580 46% 18 146166 3716 70%
c i 16.35 697 46 1 140  886  592 46% 18 146166 3715 70%
c i 16.43 697 45 1 147  913  611 46% 18 146166 3714 70%
c i 16.52 697 46 1 156  953  641 46% 19 146166 3713 70%
c i 16.62 697 46 1 164  986  665 47% 19 146166 3712 70%
c - 16.91 748 46 2 169  998  630 47% 19 145656 3712 70%
c 
c  seconds   reductions  redundant   irredundant
c          MB    restarts       trail       variables
c           level   conflicts       glue         remaining
c 
c } 16.92 748 46 2 169 1000  632 47% 19 145656 3712 70%
c [ 16.92 748  0 2 169 1000  632  0% 0 145656 3712 70%
c O 16.93 748 42 2 169 1013  637 48% 13 145656 3712 70%
c i 17.07 748 21 2 169 1100  693 56% 16 145656 3711 70%
c i 17.10 748 19 2 169 1157  730 57% 15 145656 3710 70%
c i 17.16 748 18 2 169 1264  816 56% 14 145656 3709 70%
c i 17.20 748 18 2 169 1364  881 56% 15 145656 3708 70%
c i 17.32 748 20 2 169 1647 1062 56% 16 145656 3707 70%
c i 17.46 748 20 2 169 1948 1236 56% 16 145656 3706 70%
c - 17.64 747 19 3 170 2045 1058 56% 15 145638 3706 70%
c i 17.82 728 19 3 170 2085 1082 37% 15 145638 3705 70%
c i 17.82 728 19 3 170 2092 1086 36% 15 145638 3704 70%
c i 17.86 728 19 3 170 2123 1106 36% 15 145638 3703 70%
c i 17.91 728 19 3 170 2151 1122 35% 15 145638 3702 70%
c i 17.91 728 19 3 170 2153 1123 35% 15 145638 3701 70%
c i 17.91 728 19 3 170 2154 1123 34% 15 145638 3700 70%
c i 18.01 728 20 3 170 2255 1199 35% 16 145638 3699 70%
c i 18.10 728 21 3 170 2392 1302 35% 17 145638 3698 70%
c i 18.13 728 21 3 170 2437 1335 35% 17 145638 3697 69%
c i 18.14 728 21 3 170 2441 1338 35% 17 145638 3696 69%
c 
c  seconds   reductions  redundant   irredundant
c          MB    restarts       trail       variables
c           level   conflicts       glue         remaining
c 
c ] 18.44 727 21 3 170 3002 1716 35% 17 145638 3696 69%
c { 18.44 727 46 3 170 3002 1716 67% 19 145638 3696 69%
c F 18.45 727 46 3 171 3019 1723 66% 19 145638 3696 69%
c i 18.46 727 46 3 171 3022 1724 66% 19 145638 3682 69%
c i 18.64 727 42 3 171 3197 1844 61% 18 145638 3681 69%
c i 18.83 727 41 3 185 3336 1970 58% 19 145638 3680 69%
c i 18.86 727 41 3 188 3344 1977 58% 19 145638 3679 69%
c i 19.01 727 42 3 198 3384 2009 57% 19 145638 3678 69%
c - 19.42 677 41 4 205 3440 1476 56% 19 145348 3678 69%
c i 19.54 677 41 4 210 3460 1493 56% 19 145348 3626 68%
c i 19.95 678 42 4 230 3560 1571 54% 20 145348 3625 68%
c i 20.22 678 43 4 257 3670 1673 53% 21 145348 3624 68%
c i 20.22 678 43 4 257 3671 1673 53% 21 145348 3623 68%
c i 20.29 678 44 4 264 3697 1696 52% 21 145348 3622 68%
c i 20.48 678 42 4 290 3917 1874 50% 21 145348 3621 68%
c i 20.49 678 42 4 290 3926 1880 50% 21 145348 3620 68%
c i 20.62 678 41 4 290 4049 1981 49% 21 145348 3619 68%
c i 20.82 678 38 4 290 4302 2172 48% 19 145348 3618 68%
c i 20.83 678 38 4 290 4308 2177 48% 19 145348 3617 68%
c i 20.83 678 38 4 290 4309 2177 48% 19 145348 3616 68%
c 
c  seconds   reductions  redundant   irredundant
c          MB    restarts       trail       variables
c           level   conflicts       glue         remaining
c 
c d 21.34 678 34 4 311 5002 2601 44% 19 144831 3603 68%
c 2 21.39 678 34 4 311 5002 4429 44% 19 144806 3582 67%
c p 24.78 677 34 4 311 5002 7711 44% 19 144806 3511 66%
c d 24.97 677 34 4 311 5002 7447 44% 19 144398 3510 66%
c - 25.33 718 33 5 315 5184 2065 44% 18 144398 3510 66%
c # 25.57 718 29 5 315 6021 2549 41% 17 144398 3510 66%
c } 25.92 718 26 5 315 7002 3101 41% 15 144398 3510 66%
c [ 25.92 718 21 5 315 7002 3101 35% 17 144398 3510 66%
c - 26.05 678 21 6 316 7272 2333 36% 17 144398 3510 66%
c - 26.86 678 20 7 317 9707 2715 36% 16 144398 3510 66%
c I 26.94 678 21 7 317 10024 2964 36% 17 144398 3510 66%
c - 28.09 677 24 8 319 12490 3401 35% 19 144398 3510 66%
c ] 29.19 677 24 8 320 15002 4992 34% 20 144398 3510 66%
c { 29.19 677 26 8 320 15002 4992 41% 15 144398 3510 66%
c 2 29.23 677 26 8 320 15002 6827 41% 15 144393 3510 66%
c p 30.84 677 26 8 320 15002 9947 41% 15 144393 3502 66%
c B 30.94 677 26 8 320 15025 9967 41% 15 144393 3502 66%
c - 31.86 677 26 9 400 15621 3966 40% 16 144369 3502 66%
c s 32.10 677 26 9 424 15777 3918 40% 16 142026 3502 66%
c v 34.31 677 26 9 424 15777 3918 40% 16 141900 3502 66%
c 
c  seconds   reductions   redundant   irredundant
c          MB    restarts        trail       variables
c           level    conflicts       glue         remaining
c 
c w 34.36 677 26 9 424 15777 3913 40% 16 141900 3502 66%
c t 34.36 677 26 9 424 15777 3905 40% 16 141864 3502 66%
c e 34.69 678 26 9 424 15777 3608 40% 16 136164 521 10%
c s 34.78 678 26 9 424 15777 3608 40% 16 135031 521 10%
c } 37.03 680 25 9 632 18224 5282 75% 16 135031 521 10%
c 1 37.03 680 25 9 632 18224 5282 75% 16 135031 521 10%
c 
c --- [ writing output ] -----------------------------------------------------
c 
c writing simplified CNF to DIMACS file 'simp/12.cubes989.adj.simp1'
c * 37.03 680 25 9 632 18224 5282 75% 16 135031 521 10%
c opening file to write 'simp/12.cubes989.adj.simp1'
c writing 'p cnf 5320 135031' header
c closing file 'simp/12.cubes989.adj.simp1'
c after writing 43382609 bytes 41.4 MB
c wrote 135031 clauses in 0.32 seconds process time
c 
c --- [ writing extension ] --------------------------------------------------
c 
c writing extension stack to 'simp/12.cubes989.adj.ext1'
c opening file to write 'simp/12.cubes989.adj.ext1'
c closing file 'simp/12.cubes989.adj.ext1'
c after writing 177725 bytes 0.2 MB
c wrote 7990 witnesses in 0.00 seconds process time
c 
c --- [ result ] -------------------------------------------------------------
c 
s SATISFIABLE
c 
c --- [ run-time profiling ] -------------------------------------------------
c 
c process time taken by individual solving procedures
c (percentage relative to process time for solving)
c 
c        19.68   69.67% search
c        14.54   51.47% unstable
c         8.79   31.11% parse
c         8.57   30.33% simplify
c         5.00   17.71% probe
c         4.79   16.95% stable
c         2.25    7.97% vivify
c         0.65    2.30% elim
c         0.35    1.25% lucky
c         0.17    0.60% subsume
c         0.06    0.22% ternary
c   =================================
c        28.24   75.62% solve
c 
c last line shows process time for solving
c (percentage relative to total process time)
c 
c --- [ statistics ] ---------------------------------------------------------
c 
c chronological:              3824        20.98 %  of conflicts
c conflicts:                 18224       645.25    per second
c decisions:                 50294      1780.75    per second
c eliminated:                 2981        56.03 %  of all variables
c fixed:                      1804        33.91 %  of all variables
c learned:                   17777        97.55 %  per conflict
c learned_lits:            2171617       100.00 %  learned literals
c minimized:                     0         0.00 %  learned literals
c shrunken:                1297998        59.77 %  learned literals
c minishrunken:             160515         7.39 %  learned literals
c propagations:            3318293         0.12 M  per second
c reduced:                    6223        34.15 %  per conflict
c rephased:                      5      3644.80    interval
c restarts:                    632        28.84    interval
c stabilizing:                   2        54.88 %  of conflicts
c substituted:                  14         0.26 %  of all variables
c subsumed:                   9720         0.49 %  of all clauses
c strengthened:               2684         0.14 %  of all clauses
c ternary:                    3664         0.54 %  of resolved
c vivified:                    141         0.01 %  of all clauses
c weakened:                   6186         3.01    average size
c 
c seconds are measured in process time for solving
c 
c --- [ resources ] ----------------------------------------------------------
c 
c total process time since initialization:        37.35    seconds
c total real time since initialization:           37.40    seconds
c maximum resident set size of process:          797.80    MB
c 
c --- [ shutting down ] ------------------------------------------------------
c 
c exit 10
WARNING! DIMACS header mismatch: wrong number of variables.
============================[ Problem Statistics ]=============================
|                                                                             |
|  Number of variables:          3483                                         |
|  Number of clauses:          135031                                         |
|  Parse time:                   0.60 s                                       |
|  Simplification time:          0.01 s                                       |
|                                                                             |
============================[ Search Statistics ]====================================================
| Conflicts |          ORIGINAL         |          LEARNT          | Num Sols |      SUBGRAPHS      |
|           |    Vars  Clauses Literals |    Limit  Clauses Lit/Cl |          | Canonical Noncanon. |
=====================================================================================================
|       154 |    3388   135085  9669260 |     2000      153      5 |        0 |        53        54 |
=====================================================================================================
Number of solutions   : 0
Canonical subgraphs   : 72             (146 /sec)
          order  3    : 1              (142857 /sec)
          order  4    : 1              (333333 /sec)
          order  5    : 1              (111111 /sec)
          order  6    : 1              (52632 /sec)
          order  7    : 1              (8333 /sec)
          order  8    : 2              (1368 /sec)
          order  9    : 4              (692 /sec)
          order 10    : 7              (356 /sec)
          order 11    : 17             (190 /sec)
          order 12    : 37             (98 /sec)
          order 13    : 0              (-nan /sec)
          order 14    : 0              (-nan /sec)
          order 15    : 0              (-nan /sec)
          order 16    : 0              (-nan /sec)
          order 17    : 0              (-nan /sec)
          order 18    : 0              (-nan /sec)
          order 19    : 0              (-nan /sec)
          order 20    : 0              (-nan /sec)
          order 21    : 0              (-nan /sec)
Noncanonical subgraphs: 90             (12782 /sec)
          order  3    : 0              (-nan /sec)
          order  4    : 0              (-nan /sec)
          order  5    : 0              (-nan /sec)
          order  6    : 0              (-nan /sec)
          order  7    : 0              (-nan /sec)
          order  8    : 0              (-nan /sec)
          order  9    : 0              (-nan /sec)
          order 10    : 0              (-nan /sec)
          order 11    : 0              (-nan /sec)
          order 12    : 0              (-nan /sec)
          order 13    : 90             (12782 /sec)
          order 14    : 0              (-nan /sec)
          order 15    : 0              (-nan /sec)
          order 16    : 0              (-nan /sec)
          order 17    : 0              (-nan /sec)
          order 18    : 0              (-nan /sec)
          order 19    : 0              (-nan /sec)
          order 20    : 0              (-nan /sec)
Canonicity checking   : 0.494239 s
Noncanonicity checking: 0.007041 s
Total canonicity time : 0.50128 s
database reductions   : 0
restarts              : 3
conflicts             : 230            (181 /sec)
decisions             : 4981           (0.00 % random) (3918 /sec)
propagations          : 12080          (9501 /sec)
conflict literals     : 1068           (60.91 % deleted)
actual reward         : 0.094327
Memory used           : 59.00 MB
CPU time              : 1.27139 s

UNSATISFIABLE
